Problem:    
Rows:       248
Columns:    89 (72 integer, 72 binary)
Non-zeros:  820
Status:     INTEGER OPTIMAL
Objective:  value = 89.896433 (MINimum)

   No.   Row name        Activity     Lower bound   Upper bound
------ ------------    ------------- ------------- -------------
     1 r.5                   589.896             0               
     2 r.6                  -483.411      -484.076               
     3 r.7                   89.8964             0               
     4 r.8                  -391.051      -483.947               
     5 r.9                   89.8964             0               
     6 r.10                 -270.802       -482.67               
     7 r.11                  589.896             0               
     8 r.12                 -434.625      -482.923               
     9 r.13                  589.896             0               
    10 r.14                 -437.625      -471.526               
    11 r.15                  89.8964             0               
    12 r.16                 -407.473      -475.848               
    13 r.17                  589.896             0               
    14 r.18                 -466.098      -485.687               
    15 r.19                  89.8964             0               
    16 r.20                  7.30943      -486.126               
    17 r.21                  89.8964             0               
    18 r.22                 -288.133      -478.997               
    19 r.23                  589.896             0               
    20 r.24                  -475.57      -482.879               
    21 r.25                  89.8964             0               
    22 r.26                 -288.133      -428.021               
    23 r.27                  589.896             0               
    24 r.28                 -451.702      -479.132               
    25 r.29                  89.8964             0               
    26 r.30                 -360.112      -428.487               
    27 r.31                  589.896             0               
    28 r.32                 -410.104      -478.479               
    29 r.33                  589.896             0               
    30 r.34                 -499.335      -499.335               
    31 r.35                  89.8964             0               
    32 r.36                 -493.757      -493.757               
    33 r.37                        1             1             = 
    34 r.38                        1             1             = 
    35 r.39                        1             1             = 
    36 r.40                        1             1             = 
    37 r.41                        1             1             = 
    38 r.42                        1             1             = 
    39 r.43                        1             1             = 
    40 r.44                        1             1             = 
    41 r.45                  209.609       17.3304               
    42 r.46                 -209.609      -484.076               
    43 r.47                  459.426        17.077               
    44 r.48                 -459.426      -483.947               
    45 r.49                  42.7862       28.4737               
    46 r.50                 -45.7862      -484.076               
    47 r.51                  486.578        24.152               
    48 r.52                 -483.578      -483.947               
    49 r.53                  14.3125       14.3125               
    50 r.54                 -14.3125      -484.076               
    51 r.55                   401.36        13.874               
    52 r.56                  -401.36      -483.947               
    53 r.57                  192.278       21.0035               
    54 r.58                 -192.278      -484.076               
    55 r.59                  418.481        17.121               
    56 r.60                 -418.481      -483.947               
    57 r.61                 -307.722      -425.021               
    58 r.62                 -471.291      -476.132               
    59 r.63                  105.918      -425.021               
    60 r.64                  -57.651      -476.132               
    61 r.65                  120.299       71.5126               
    62 r.66                 -120.299      -484.076               
    63 r.67                  483.947        21.521               
    64 r.68                 -483.947      -483.947               
    65 r.69                 -481.076      -481.076               
    66 r.70                 -394.715      -480.947               
    67 r.71                  13.3462      -481.076               
    68 r.72                  99.7064      -480.947               
    69 r.73                  287.391       15.9244               
    70 r.74                 -290.391       -482.67               
    71 r.75                   43.574        16.053               
    72 r.76                  -40.574      -482.923               
    73 r.77                  333.178       28.4737               
    74 r.78                 -336.178       -482.67               
    75 r.79                   27.152        24.152               
    76 r.80                  -24.152      -482.923               
    77 r.81                  304.704       14.3125               
    78 r.82                 -304.704       -482.67               
    79 r.83                  441.934        13.874               
    80 r.84                 -441.934      -482.923               
    81 r.85                   482.67       21.0035               
    82 r.86                  -482.67       -482.67               
    83 r.87                  459.055        17.121               
    84 r.88                 -459.055      -482.923               
    85 r.89                   482.67       71.9794               
    86 r.90                  -482.67       -482.67               
    87 r.91                  482.923        20.868               
    88 r.92                 -482.923      -482.923               
    89 r.93                 -89.3098      -425.487               
    90 r.94                 -139.301      -475.479               
    91 r.95                 -425.487      -425.487               
    92 r.96                 -475.479      -475.479               
    93 r.97                 -271.467       -479.67               
    94 r.98                 -435.289      -479.923               
    95 r.99                  222.955       -479.67               
    96 r.100                 59.1324      -479.923               
    97 r.101                 451.214       15.9244               
    98 r.102                -454.214      -471.526               
    99 r.103                  19.422        16.053               
   100 r.104                 -16.422      -475.848               
   101 r.105                 163.822       17.3304               
   102 r.106                -163.822      -471.526               
   103 r.107                 475.848        17.077               
   104 r.108                -475.848      -475.848               
   105 r.109                -468.526      -468.526               
   106 r.110                -444.374      -472.848               
   107 r.111                -441.934      -468.526               
   108 r.112                -417.782      -472.848               
   109 r.113                 146.492       21.0035               
   110 r.114                -146.492      -471.526               
   111 r.115                 434.903        17.121               
   112 r.116                -434.903      -475.848               
   113 r.117                 146.492       71.9794               
   114 r.118                -146.492      -471.526               
   115 r.119                 458.771        20.868               
   116 r.120                -458.771      -475.848               
   117 r.121                -425.487      -425.487               
   118 r.122                -475.479      -475.479               
   119 r.123                 50.3606      -425.487               
   120 r.124                   0.369      -475.479               
   121 r.125                -435.289      -468.526               
   122 r.126                -411.137      -472.848               
   123 r.127                 59.1324      -468.526               
   124 r.128                 83.2844      -472.848               
   125 r.129                 482.687       15.9244               
   126 r.130                -485.687      -485.687               
   127 r.131                  101.64        16.053               
   128 r.132                  -98.64      -486.126               
   129 r.133                 195.296       17.3304               
   130 r.134                -195.296      -485.687               
   131 r.135                  58.066        17.077               
   132 r.136                 -58.066      -486.126               
   133 r.137                -468.526      -468.526               
   134 r.138                -444.374      -472.848               
   135 r.139                -441.934      -468.526               
   136 r.140                -417.782      -472.848               
   137 r.141                 177.966       21.0035               
   138 r.142                -177.966      -485.687               
   139 r.143                  17.121        17.121               
   140 r.144                 -17.121      -486.126               
   141 r.145                 177.966       71.9794               
   142 r.146                -177.966      -485.687               
   143 r.147                  40.989        20.868               
   144 r.148                 -40.989      -486.126               
   145 r.149                -394.014      -425.487               
   146 r.150                -444.005      -475.479               
   147 r.151                -367.421      -425.487               
   148 r.152                -417.413      -475.479               
   149 r.153                -466.763      -479.687               
   150 r.154                 6.64463      -480.126               
   151 r.155                 27.6587      -479.687               
   152 r.156                 501.066      -480.126               
   153 r.157                 304.722       15.9244               
   154 r.158                -307.722      -478.997               
   155 r.159                  84.519        16.053               
   156 r.160                 -81.519      -482.879               
   157 r.161                 17.3304       17.3304               
   158 r.162                -17.3304      -478.997               
   159 r.163                  40.945        17.077               
   160 r.164                 -40.945      -482.879               
   161 r.165                 350.508       28.4737               
   162 r.166                -353.508      -478.997               
   163 r.167                  68.097        24.152               
   164 r.168                 -65.097      -482.879               
   165 r.169                 322.034       14.3125               
   166 r.170                -322.034      -478.997               
   167 r.171                 482.879        13.874               
   168 r.172                -482.879      -482.879               
   169 r.173                       0      -425.021               
   170 r.174                -163.569      -476.132               
   171 r.175                -312.563      -425.021               
   172 r.176                -476.132      -476.132               
   173 r.177                -71.9794      -425.487               
   174 r.178                -121.971      -475.479               
   175 r.179                -384.542      -425.487               
   176 r.180                -434.534      -475.479               
   177 r.181                -288.797      -472.997               
   178 r.182                -476.234      -476.879               
   179 r.183                 205.624      -472.997               
   180 r.184                 18.1874      -476.879               
   181 r.185                -307.722      -425.021               
   182 r.186                -471.291      -476.132               
   183 r.187                 105.918      -425.021               
   184 r.188                 -57.651      -476.132               
   185 r.189                 17.3304       17.3304               
   186 r.190                -17.3304      -428.021               
   187 r.191                  17.077        17.077               
   188 r.192                 -17.077      -479.132               
   189 r.193                 350.508       28.4737               
   190 r.194                -353.508      -428.021               
   191 r.195                  44.229        24.152               
   192 r.196                 -41.229      -479.132               
   193 r.197                 322.034       14.3125               
   194 r.198                -322.034      -428.021               
   195 r.199                 459.011        13.874               
   196 r.200                -459.011      -479.132               
   197 r.201                       0      -425.021               
   198 r.202                -163.569      -476.132               
   199 r.203                -312.563      -425.021               
   200 r.204                -476.132      -476.132               
   201 r.205                 428.021       71.5126               
   202 r.206                -428.021      -428.021               
   203 r.207                  41.598        21.521               
   204 r.208                 -41.598      -479.132               
   205 r.209                 376.701       15.9244               
   206 r.210                -379.701      -428.487               
   207 r.211                  19.053        16.053               
   208 r.212                 -16.053      -478.479               
   209 r.213                -89.3098      -425.487               
   210 r.214                -139.301      -475.479               
   211 r.215                -425.487      -425.487               
   212 r.216                -475.479      -475.479               
   213 r.217                -425.487      -425.487               
   214 r.218                -475.479      -475.479               
   215 r.219                 50.3606      -425.487               
   216 r.220                   0.369      -475.479               
   217 r.221                -394.014      -425.487               
   218 r.222                -444.005      -475.479               
   219 r.223                -367.421      -425.487               
   220 r.224                -417.413      -475.479               
   221 r.225                -71.9794      -425.487               
   222 r.226                -121.971      -475.479               
   223 r.227                -384.542      -425.487               
   224 r.228                -434.534      -475.479               
   225 r.229                 71.9794       71.9794               
   226 r.230                -71.9794      -428.487               
   227 r.231                 458.402        20.868               
   228 r.232                -458.402      -478.479               
   229 r.233                -481.076      -481.076               
   230 r.234                -394.715      -480.947               
   231 r.235                 13.3462      -481.076               
   232 r.236                 99.7064      -480.947               
   233 r.237                -271.467       -479.67               
   234 r.238                -435.289      -479.923               
   235 r.239                 222.955       -479.67               
   236 r.240                 59.1324      -479.923               
   237 r.241                -435.289      -468.526               
   238 r.242                -411.137      -472.848               
   239 r.243                 59.1324      -468.526               
   240 r.244                 83.2844      -472.848               
   241 r.245                -466.763      -479.687               
   242 r.246                 6.64463      -480.126               
   243 r.247                 27.6587      -479.687               
   244 r.248                 501.066      -480.126               
   245 r.249                -288.797      -472.997               
   246 r.250                -476.234      -476.879               
   247 r.251                 205.624      -472.997               
   248 r.252                 18.1874      -476.879               

   No. Column name       Activity     Lower bound   Upper bound
------ ------------    ------------- ------------- -------------
     1 tt                    89.8964             0               
     2 s_1_1        *              1             0             1 
     3 t_1_1                 70.3072             0               
     4 s_1_6        *              0             0             1 
     5 s_2_1        *              0             0             1 
     6 t_2_1                 483.947             0               
     7 s_2_6        *              1             0             1 
     8 s_1_2        *              0             0             1 
     9 t_1_2                 360.699             0               
    10 s_1_7        *              0             0             1 
    11 s_2_2        *              1             0             1 
    12 t_2_2                  24.521             0               
    13 s_2_7        *              1             0             1 
    14 s_1_3        *              1             0             1 
    15 t_1_3                  24.521             0               
    16 s_2_3        *              0             0             1 
    17 t_2_3                 500.369             0               
    18 s_1_4        *              1             0             1 
    19 t_1_4                 55.9947             0               
    20 s_2_4        *              0             0             1 
    21 t_2_4                  82.587             0               
    22 s_1_5        *              0             0             1 
    23 t_1_5                 378.029             0               
    24 s_2_5        *              1             0             1 
    25 t_2_5                  65.466             0               
    26 t_1_6                 378.029             0               
    27 t_2_6                  41.598             0               
    28 t_1_7                 450.008             0               
    29 t_2_7                       0             0               
    30 s_1_8        *              1             0             1 
    31 t_1_8                 89.2316             0               
    32 s_2_8        *              0             0             1 
    33 t_2_8                 583.653             0               
    34 u_1_1_2      *              1             0             1 
    35 u_2_1_2      *              0             0             1 
    36 u_1_1_3      *              0             0             1 
    37 u_2_1_3      *              1             0             1 
    38 u_1_1_4      *              0             0             1 
    39 u_2_1_4      *              0             0             1 
    40 u_1_1_5      *              1             0             1 
    41 u_2_1_5      *              0             0             1 
    42 u_1_1_7      *              1             0             1 
    43 u_2_1_7      *              0             0             1 
    44 u_1_2_1      *              0             0             1 
    45 u_2_2_1      *              1             0             1 
    46 u_1_2_3      *              0             0             1 
    47 u_2_2_3      *              1             0             1 
    48 u_1_2_4      *              0             0             1 
    49 u_2_2_4      *              1             0             1 
    50 u_1_2_5      *              1             0             1 
    51 u_2_2_5      *              1             0             1 
    52 u_1_2_6      *              1             0             1 
    53 u_2_2_6      *              1             0             1 
    54 u_1_3_1      *              1             0             1 
    55 u_2_3_1      *              0             0             1 
    56 u_1_3_2      *              1             0             1 
    57 u_2_3_2      *              0             0             1 
    58 u_1_3_5      *              1             0             1 
    59 u_2_3_5      *              0             0             1 
    60 u_1_3_6      *              1             0             1 
    61 u_2_3_6      *              0             0             1 
    62 u_1_4_1      *              1             0             1 
    63 u_2_4_1      *              1             0             1 
    64 u_1_4_2      *              1             0             1 
    65 u_2_4_2      *              0             0             1 
    66 u_1_4_5      *              1             0             1 
    67 u_2_4_5      *              0             0             1 
    68 u_1_4_6      *              1             0             1 
    69 u_2_4_6      *              0             0             1 
    70 u_1_5_1      *              0             0             1 
    71 u_2_5_1      *              1             0             1 
    72 u_1_5_2      *              0             0             1 
    73 u_2_5_2      *              0             0             1 
    74 u_1_5_3      *              0             0             1 
    75 u_2_5_3      *              1             0             1 
    76 u_1_5_4      *              0             0             1 
    77 u_2_5_4      *              1             0             1 
    78 u_1_6_2      *              0             0             1 
    79 u_2_6_2      *              0             0             1 
    80 u_1_6_3      *              0             0             1 
    81 u_2_6_3      *              1             0             1 
    82 u_1_6_4      *              0             0             1 
    83 u_2_6_4      *              1             0             1 
    84 u_1_6_7      *              1             0             1 
    85 u_2_6_7      *              0             0             1 
    86 u_1_7_1      *              0             0             1 
    87 u_2_7_1      *              1             0             1 
    88 u_1_7_6      *              0             0             1 
    89 u_2_7_6      *              1             0             1 

Integer feasibility conditions:

KKT.PE: max.abs.err = 1.14e-13 on row 79
        max.rel.err = 1.08e-16 on row 79
        High quality

KKT.PB: max.abs.err = 1.14e-13 on row 65
        max.rel.err = 2.36e-16 on row 65
        High quality

End of output
